Minimize
  - 11 y_0 - 14 y_1 - 9 y_2 - 15 y_3 - 13 y_4 - 5 y_5 - 7 y_6 - 8 y_7
   - 13 y_8 - 7 y_9 - 14 y_10 - 8 y_11 - 7 y_12 - 3 y_13 - 13 y_14 - 9 y_15
   - 5 y_16 - 11 y_17 - 7 y_18 - 11 y_19 - 7 y_20 - 12 y_21 - 5 y_22
   - 15 y_23 - 8 y_24 - 9 y_25 - 10 y_26 - 16 y_27 - 11 y_28 - 10 y_29
   - 7 y_31 - 13 y_32 - 3 y_33 - 16 y_34 - 14 y_35 - 5 y_36 - 9 y_37
   - 6 y_38 - 9 y_39 - 11 y_40 - 5 y_41 - 7 y_42 - 8 y_43 - 11 y_44
   - 11 y_45 - 16 y_46 - 13 y_47 - 7 y_48 - 11 y_49 + 76 x_0_1 + 69 x_0_2
   + 72 x_0_3 + 16 x_0_4 + 27 x_0_5 + 63 x_0_7 + 49 x_0_12 + 8 x_0_15
   + 60 x_0_16 + 83 x_0_17 + 17 x_0_18 + 90 x_0_21 + 58 x_0_24 + 78 x_0_25
   + 13 x_0_26 + 68 x_0_27 + 83 x_0_28 + 40 x_0_33 + 95 x_0_35 + 24 x_0_36
   + 43 x_0_39 + 88 x_0_40 + 22 x_0_42 + 13 x_0_43 + 72 x_0_45 + 68 x_0_48
   + 87 x_0_49 + 33 x_1_2 + 15 x_1_3 + 98 x_1_8 + 42 x_1_11 + 30 x_1_12
   + 48 x_1_13 + 103 x_1_14 + 69 x_1_15 + 44 x_1_17 + 22 x_1_19 + 37 x_1_20
   + 63 x_1_21 + 58 x_1_22 + 84 x_1_28 + 65 x_1_34 + 70 x_1_36 + 93 x_1_39
   + 76 x_1_42 + 63 x_1_43 + 71 x_1_46 + 36 x_1_47 + 81 x_2_4 + 54 x_2_5
   + 59 x_2_7 + 66 x_2_8 + 17 x_2_16 + 12 x_2_19 + 46 x_2_23 + 50 x_2_27
   + 75 x_2_29 + 41 x_2_34 + 25 x_2_35 + 54 x_2_36 + 54 x_2_37 + 40 x_2_40
   + 50 x_2_41 + 56 x_2_43 + 53 x_2_44 + 15 x_2_45 + 51 x_2_47 + 87 x_3_4
   + 73 x_3_5 + 95 x_3_7 + 69 x_3_9 + 34 x_3_12 + 52 x_3_13 + 110 x_3_14
   + 55 x_3_16 + 57 x_3_17 + 74 x_3_18 + 76 x_3_21 + 67 x_3_22 + 5 x_3_23
   + 33 x_3_24 + 95 x_3_28 + 98 x_3_29 + 62 x_3_30 + 73 x_3_33 + 59 x_3_35
   + 71 x_3_36 + 95 x_3_39 + 64 x_3_41 + 39 x_3_44 + 31 x_3_45 + 85 x_3_46
   + 26 x_3_47 + 92 x_4_10 + 50 x_4_13 + 21 x_4_15 + 69 x_4_16 + 21 x_4_18
   + 74 x_4_20 + 97 x_4_21 + 88 x_4_25 + 29 x_4_26 + 85 x_4_28 + 34 x_4_29
   + 50 x_4_30 + 103 x_4_32 + 116 x_4_34 + 29 x_4_36 + 30 x_4_41
   + 23 x_4_42 + 27 x_4_43 + 50 x_4_44 + 86 x_4_45 + 64 x_4_47 + 96 x_4_49
   + 60 x_5_8 + 47 x_5_9 + 73 x_5_10 + 25 x_5_13 + 21 x_5_15 + 63 x_5_19
   + 47 x_5_20 + 67 x_5_21 + 42 x_5_22 + 48 x_5_24 + 30 x_5_26 + 34 x_5_31
   + 13 x_5_33 + 87 x_5_34 + 78 x_5_35 + 3 x_5_36 + 11 x_5_41 + 45 x_5_44
   + 62 x_5_45 + 84 x_5_46 + 49 x_5_48 + 81 x_6_8 + 43 x_6_10 + 3 x_6_11
   + 36 x_6_16 + 34 x_6_18 + 35 x_6_20 + 66 x_6_21 + 46 x_6_22 + 80 x_6_34
   + 57 x_6_39 + 17 x_6_44 + 39 x_6_45 + 24 x_6_47 + 36 x_7_9 + 64 x_7_11
   + 61 x_7_12 + 44 x_7_13 + 18 x_7_14 + 57 x_7_15 + 42 x_7_16 + 60 x_7_17
   + 45 x_7_18 + 52 x_7_20 + 33 x_7_22 + 94 x_7_23 + 97 x_7_27 + 27 x_7_28
   + 62 x_7_31 + 26 x_7_33 + 73 x_7_35 + 49 x_7_38 + 27 x_7_39 + 42 x_7_40
   + 45 x_7_41 + 41 x_7_42 + 58 x_7_43 + 77 x_7_44 + 72 x_7_45 + 85 x_7_47
   + 76 x_8_12 + 14 x_8_14 + 81 x_8_15 + 52 x_8_16 + 61 x_8_17 + 45 x_8_21
   + 108 x_8_23 + 89 x_8_26 + 112 x_8_27 + 15 x_8_28 + 56 x_8_29
   + 52 x_8_30 + 65 x_8_34 + 17 x_8_37 + 57 x_8_38 + 51 x_8_39 + 33 x_8_40
   + 81 x_8_43 + 56 x_8_46 + 103 x_8_47 + 53 x_9_11 + 40 x_9_12 + 33 x_9_13
   + 46 x_9_14 + 62 x_9_15 + 15 x_9_16 + 24 x_9_17 + 56 x_9_18 + 22 x_9_20
   + 5 x_9_22 + 70 x_9_23 + 37 x_9_24 + 66 x_9_26 + 26 x_9_28 + 60 x_9_29
   + 27 x_9_30 + 49 x_9_31 + 26 x_9_32 + 41 x_9_34 + 37 x_9_35 + 29 x_9_37
   + 17 x_9_38 + 66 x_9_44 + 69 x_9_47 + 20 x_9_49 + 43 x_10_11
   + 103 x_10_14 + 58 x_10_22 + 26 x_10_24 + 65 x_10_26 + 97 x_10_29
   + 57 x_10_30 + 63 x_10_32 + 64 x_10_34 + 44 x_10_35 + 93 x_10_39
   + 64 x_10_43 + 70 x_10_46 + 57 x_10_49 + 82 x_11_14 + 39 x_11_16
   + 43 x_11_19 + 37 x_11_20 + 69 x_11_21 + 36 x_11_23 + 38 x_11_27
   + 32 x_11_30 + 73 x_11_32 + 82 x_11_34 + 66 x_11_35 + 58 x_11_39
   + 72 x_11_40 + 25 x_11_41 + 21 x_11_43 + 14 x_11_44 + 78 x_12_14
   + 41 x_12_15 + 26 x_12_16 + 22 x_12_20 + 54 x_12_21 + 9 x_12_24
   + 37 x_12_25 + 38 x_12_26 + 66 x_12_29 + 28 x_12_30 + 14 x_12_31
   + 57 x_12_32 + 40 x_12_33 + 66 x_12_34 + 49 x_12_35 + 40 x_12_36
   + 59 x_12_40 + 36 x_12_43 + 29 x_12_44 + 67 x_12_46 + 29 x_12_47
   + 50 x_12_49 + 31 x_13_15 + 24 x_13_20 + 52 x_13_21 + 24 x_13_24
   + 39 x_13_25 + 33 x_13_26 + 53 x_13_28 + 48 x_13_29 + 18 x_13_31
   + 68 x_13_34 + 56 x_13_35 + 23 x_13_36 + 46 x_13_37 + 19 x_13_41
   + 30 x_13_42 + 27 x_13_43 + 38 x_13_45 + 41 x_13_47 + 75 x_14_15
   + 56 x_14_16 + 70 x_14_17 + 84 x_14_19 + 65 x_14_20 + 110 x_14_23
   + 64 x_14_25 + 113 x_14_27 + 45 x_14_29 + 79 x_14_31 + 44 x_14_33
   + 81 x_14_35 + 40 x_14_39 + 44 x_14_40 + 58 x_14_42 + 95 x_14_44
   + 86 x_14_45 + 68 x_14_46 + 61 x_14_48 + 60 x_14_49 + 52 x_15_16
   + 75 x_15_17 + 67 x_15_19 + 82 x_15_21 + 57 x_15_22 + 50 x_15_24
   + 70 x_15_25 + 11 x_15_26 + 40 x_15_29 + 29 x_15_31 + 33 x_15_33
   + 18 x_15_36 + 65 x_15_45 + 97 x_15_46 + 60 x_15_48 + 29 x_16_19
   + 10 x_16_20 + 12 x_16_22 + 39 x_16_28 + 59 x_16_29 + 35 x_16_31
   + 47 x_16_34 + 37 x_16_35 + 41 x_16_36 + 7 x_16_38 + 47 x_16_42
   + 46 x_16_46 + 54 x_16_47 + 28 x_16_49 + 73 x_17_18 + 20 x_17_21
   + 28 x_17_22 + 60 x_17_23 + 32 x_17_24 + 46 x_17_28 + 53 x_17_31
   + 19 x_17_32 + 25 x_17_34 + 13 x_17_35 + 72 x_17_42 + 69 x_17_44
   + 26 x_17_45 + 77 x_18_21 + 51 x_18_22 + 71 x_18_23 + 53 x_18_24
   + 24 x_18_26 + 30 x_18_30 + 35 x_18_31 + 23 x_18_33 + 96 x_18_34
   + 86 x_18_35 + 54 x_18_37 + 55 x_18_38 + 27 x_18_39 + 17 x_18_43
   + 68 x_18_45 + 93 x_18_46 + 55 x_18_47 + 19 x_19_20 + 42 x_19_21
   + 17 x_19_24 + 85 x_19_29 + 40 x_19_31 + 42 x_19_32 + 62 x_19_36
   + 22 x_19_38 + 81 x_19_39 + 51 x_19_40 + 69 x_19_42 + 62 x_19_43
   + 53 x_19_44 + 50 x_19_46 + 36 x_19_49 + 33 x_20_21 + 21 x_20_22
   + 52 x_20_27 + 47 x_20_28 + 67 x_20_29 + 27 x_20_30 + 34 x_20_31
   + 36 x_20_32 + 39 x_20_33 + 31 x_20_35 + 47 x_20_36 + 48 x_20_37
   + 5 x_20_38 + 53 x_20_42 + 20 x_20_45 + 7 x_20_48 + 78 x_21_23
   + 83 x_21_27 + 31 x_21_28 + 79 x_21_29 + 6 x_21_32 + 55 x_21_33
   + 22 x_21_34 + 27 x_21_35 + 74 x_21_39 + 13 x_21_40 + 83 x_21_44
   + 45 x_21_45 + 82 x_21_47 + 25 x_21_48 + 68 x_22_23 + 35 x_22_24
   + 61 x_22_26 + 72 x_22_27 + 55 x_22_29 + 45 x_22_31 + 31 x_22_32
   + 29 x_22_33 + 46 x_22_34 + 41 x_22_35 + 43 x_22_36 + 48 x_22_42
   + 54 x_22_43 + 62 x_22_44 + 41 x_22_45 + 16 x_22_48 + 25 x_22_49
   + 33 x_23_24 + 54 x_23_26 + 4 x_23_27 + 61 x_23_30 + 63 x_23_35
   + 68 x_23_36 + 53 x_23_38 + 93 x_23_39 + 73 x_23_42 + 56 x_23_43
   + 88 x_23_46 + 21 x_23_47 + 73 x_23_49 + 48 x_24_26 + 62 x_24_28
   + 71 x_24_29 + 50 x_24_32 + 44 x_24_33 + 47 x_24_36 + 54 x_24_40
   + 53 x_24_42 + 38 x_24_44 + 59 x_24_46 + 35 x_24_47 + 23 x_24_48
   + 42 x_24_49 + 71 x_25_26 + 64 x_25_27 + 41 x_25_28 + 76 x_25_29
   + 49 x_25_31 + 20 x_25_32 + 20 x_25_35 + 13 x_25_38 + 27 x_25_40
   + 66 x_25_43 + 28 x_25_45 + 65 x_25_47 + 83 x_26_28 + 51 x_26_29
   + 90 x_26_32 + 73 x_26_37 + 51 x_26_39 + 62 x_26_45 + 100 x_26_46
   + 35 x_26_47 + 64 x_27_30 + 39 x_27_31 + 67 x_27_35 + 90 x_27_40
   + 75 x_27_42 + 58 x_27_43 + 35 x_27_44 + 92 x_27_46 + 21 x_27_47
   + 59 x_27_48 + 77 x_27_49 + 59 x_28_29 + 43 x_28_30 + 36 x_28_32
   + 43 x_28_33 + 51 x_28_34 + 59 x_28_36 + 43 x_28_38 + 53 x_28_39
   + 19 x_28_40 + 63 x_28_41 + 88 x_28_44 + 67 x_28_45 + 43 x_28_46
   + 93 x_28_47 + 35 x_28_49 + 41 x_29_30 + 59 x_29_31 + 86 x_29_32
   + 100 x_29_34 + 95 x_29_35 + 27 x_29_36 + 44 x_29_37 + 6 x_29_39
   + 72 x_29_40 + 35 x_29_41 + 68 x_29_44 + 85 x_29_45 + 95 x_29_46
   + 81 x_29_47 + 29 x_30_31 + 12 x_30_33 + 66 x_30_34 + 35 x_30_37
   + 26 x_30_38 + 45 x_30_40 + 21 x_30_41 + 33 x_30_43 + 44 x_30_45
   + 63 x_30_46 + 28 x_30_48 + 45 x_30_49 + 69 x_31_32 + 78 x_31_34
   + 32 x_31_36 + 64 x_31_37 + 57 x_31_39 + 18 x_31_44 + 79 x_31_46
   + 40 x_31_48 + 32 x_32_38 + 80 x_32_39 + 80 x_32_42 + 86 x_32_44
   + 46 x_32_45 + 11 x_32_46 + 85 x_32_47 + 8 x_32_49 + 15 x_33_36
   + 32 x_33_37 + 24 x_33_39 + 50 x_33_40 + 20 x_33_41 + 20 x_33_42
   + 33 x_33_43 + 39 x_33_48 + 20 x_34_35 + 86 x_34_41 + 93 x_34_42
   + 95 x_34_43 + 95 x_34_44 + 91 x_34_47 + 21 x_34_49 + 90 x_35_39
   + 84 x_35_42 + 82 x_35_43 + 78 x_35_44 + 73 x_35_47 + 28 x_35_48
   + 47 x_36_37 + 42 x_36_44 + 84 x_36_46 + 53 x_36_47 + 49 x_36_48
   + 44 x_37_38 + 64 x_37_43 + 43 x_37_48 + 44 x_37_49 + 61 x_38_39
   + 34 x_38_40 + 45 x_38_41 + 53 x_38_42 + 54 x_38_44 + 24 x_38_45
   + 43 x_38_46 + 54 x_38_47 + 66 x_39_40 + 34 x_39_41 + 68 x_39_44
   + 81 x_39_45 + 90 x_39_46 + 63 x_39_48 + 74 x_39_49 + 70 x_40_42
   + 54 x_40_45 + 25 x_40_46 + 87 x_40_47 + 31 x_40_48 + 18 x_40_49
   + 34 x_41_44 + 84 x_41_46 + 46 x_41_47 + 66 x_41_49 + 73 x_42_49
   + 94 x_43_46 + 56 x_43_48 + 49 x_44_45 + 96 x_44_46 + 14 x_44_47
   + 57 x_44_48 + 54 x_45_46 + 25 x_45_48 + 94 x_46_47 + 39 x_46_48
   + 77 x_47_49 + 21 x_48_49 + 475 Constant
Subject To
 c_0: y_30 = 1
 c_1_0: y_0 >= 1
 c_1_1: y_1 + y_10 >= 1
 c_1_2: y_2 >= 1
 c_1_3: y_3 >= 1
 c_1_4: y_4 >= 1
 c_1_5: y_5 >= 1
 c_1_6: y_6 + y_31 >= 1
 c_1_7: y_7 >= 1
 c_1_8: y_8 >= 1
 c_1_9: y_9 >= 1
 c_1_10: y_1 + y_10 >= 1
 c_1_11: y_11 >= 1
 c_1_12: y_12 >= 1
 c_1_13: y_13 >= 1
 c_1_14: y_14 >= 1
 c_1_15: y_15 >= 1
 c_1_16: y_16 >= 1
 c_1_17: y_17 >= 1
 c_1_18: y_18 >= 1
 c_1_19: y_19 >= 1
 c_1_20: y_20 >= 1
 c_1_21: y_21 >= 1
 c_1_22: y_22 >= 1
 c_1_23: y_23 >= 1
 c_1_24: y_24 >= 1
 c_1_25: y_25 >= 1
 c_1_26: y_26 >= 1
 c_1_27: y_27 >= 1
 c_1_28: y_28 >= 1
 c_1_29: y_29 >= 1
 c_1_30: y_30 >= 1
 c_1_31: y_6 + y_31 >= 1
 c_1_32: y_32 >= 1
 c_1_33: y_33 >= 1
 c_1_34: y_34 >= 1
 c_1_35: y_35 >= 1
 c_1_36: y_36 >= 1
 c_1_37: y_37 >= 1
 c_1_38: y_38 >= 1
 c_1_39: y_39 >= 1
 c_1_40: y_40 >= 1
 c_1_41: y_41 >= 1
 c_1_42: y_42 >= 1
 c_1_43: y_43 >= 1
 c_1_44: y_44 >= 1
 c_1_45: y_45 >= 1
 c_1_46: y_46 >= 1
 c_1_47: y_47 >= 1
 c_1_48: y_48 >= 1
 c_1_49: y_49 >= 1
 c_2_0: - 2 y_0 + x_0_1 + x_0_2 + x_0_3 + x_0_4 + x_0_5 + x_0_7 + x_0_12
   + x_0_15 + x_0_16 + x_0_17 + x_0_18 + x_0_21 + x_0_24 + x_0_25 + x_0_26
   + x_0_27 + x_0_28 + x_0_33 + x_0_35 + x_0_36 + x_0_39 + x_0_40 + x_0_42
   + x_0_43 + x_0_45 + x_0_48 + x_0_49 = 0
 c_2_1: - 2 y_1 + x_0_1 + x_1_2 + x_1_3 + x_1_8 + x_1_11 + x_1_12 + x_1_13
   + x_1_14 + x_1_15 + x_1_17 + x_1_19 + x_1_20 + x_1_21 + x_1_22 + x_1_28
   + x_1_34 + x_1_36 + x_1_39 + x_1_42 + x_1_43 + x_1_46 + x_1_47 = 0
 c_2_2: - 2 y_2 + x_0_2 + x_1_2 + x_2_4 + x_2_5 + x_2_7 + x_2_8 + x_2_16
   + x_2_19 + x_2_23 + x_2_27 + x_2_29 + x_2_34 + x_2_35 + x_2_36 + x_2_37
   + x_2_40 + x_2_41 + x_2_43 + x_2_44 + x_2_45 + x_2_47 = 0
 c_2_3: - 2 y_3 + x_0_3 + x_1_3 + x_3_4 + x_3_5 + x_3_7 + x_3_9 + x_3_12
   + x_3_13 + x_3_14 + x_3_16 + x_3_17 + x_3_18 + x_3_21 + x_3_22 + x_3_23
   + x_3_24 + x_3_28 + x_3_29 + x_3_30 + x_3_33 + x_3_35 + x_3_36 + x_3_39
   + x_3_41 + x_3_44 + x_3_45 + x_3_46 + x_3_47 = 0
 c_2_4: - 2 y_4 + x_0_4 + x_2_4 + x_3_4 + x_4_10 + x_4_13 + x_4_15 + x_4_16
   + x_4_18 + x_4_20 + x_4_21 + x_4_25 + x_4_26 + x_4_28 + x_4_29 + x_4_30
   + x_4_32 + x_4_34 + x_4_36 + x_4_41 + x_4_42 + x_4_43 + x_4_44 + x_4_45
   + x_4_47 + x_4_49 = 0
 c_2_5: - 2 y_5 + x_0_5 + x_2_5 + x_3_5 + x_5_8 + x_5_9 + x_5_10 + x_5_13
   + x_5_15 + x_5_19 + x_5_20 + x_5_21 + x_5_22 + x_5_24 + x_5_26 + x_5_31
   + x_5_33 + x_5_34 + x_5_35 + x_5_36 + x_5_41 + x_5_44 + x_5_45 + x_5_46
   + x_5_48 = 0
 c_2_6: - 2 y_6 + x_6_8 + x_6_10 + x_6_11 + x_6_16 + x_6_18 + x_6_20
   + x_6_21 + x_6_22 + x_6_34 + x_6_39 + x_6_44 + x_6_45 + x_6_47 = 0
 c_2_7: - 2 y_7 + x_0_7 + x_2_7 + x_3_7 + x_7_9 + x_7_11 + x_7_12 + x_7_13
   + x_7_14 + x_7_15 + x_7_16 + x_7_17 + x_7_18 + x_7_20 + x_7_22 + x_7_23
   + x_7_27 + x_7_28 + x_7_31 + x_7_33 + x_7_35 + x_7_38 + x_7_39 + x_7_40
   + x_7_41 + x_7_42 + x_7_43 + x_7_44 + x_7_45 + x_7_47 = 0
 c_2_8: - 2 y_8 + x_1_8 + x_2_8 + x_5_8 + x_6_8 + x_8_12 + x_8_14 + x_8_15
   + x_8_16 + x_8_17 + x_8_21 + x_8_23 + x_8_26 + x_8_27 + x_8_28 + x_8_29
   + x_8_30 + x_8_34 + x_8_37 + x_8_38 + x_8_39 + x_8_40 + x_8_43 + x_8_46
   + x_8_47 = 0
 c_2_9: - 2 y_9 + x_3_9 + x_5_9 + x_7_9 + x_9_11 + x_9_12 + x_9_13 + x_9_14
   + x_9_15 + x_9_16 + x_9_17 + x_9_18 + x_9_20 + x_9_22 + x_9_23 + x_9_24
   + x_9_26 + x_9_28 + x_9_29 + x_9_30 + x_9_31 + x_9_32 + x_9_34 + x_9_35
   + x_9_37 + x_9_38 + x_9_44 + x_9_47 + x_9_49 = 0
 c_2_10: - 2 y_10 + x_4_10 + x_5_10 + x_6_10 + x_10_11 + x_10_14 + x_10_22
   + x_10_24 + x_10_26 + x_10_29 + x_10_30 + x_10_32 + x_10_34 + x_10_35
   + x_10_39 + x_10_43 + x_10_46 + x_10_49 = 0
 c_2_11: - 2 y_11 + x_1_11 + x_6_11 + x_7_11 + x_9_11 + x_10_11 + x_11_14
   + x_11_16 + x_11_19 + x_11_20 + x_11_21 + x_11_23 + x_11_27 + x_11_30
   + x_11_32 + x_11_34 + x_11_35 + x_11_39 + x_11_40 + x_11_41 + x_11_43
   + x_11_44 = 0
 c_2_12: - 2 y_12 + x_0_12 + x_1_12 + x_3_12 + x_7_12 + x_8_12 + x_9_12
   + x_12_14 + x_12_15 + x_12_16 + x_12_20 + x_12_21 + x_12_24 + x_12_25
   + x_12_26 + x_12_29 + x_12_30 + x_12_31 + x_12_32 + x_12_33 + x_12_34
   + x_12_35 + x_12_36 + x_12_40 + x_12_43 + x_12_44 + x_12_46 + x_12_47
   + x_12_49 = 0
 c_2_13: - 2 y_13 + x_1_13 + x_3_13 + x_4_13 + x_5_13 + x_7_13 + x_9_13
   + x_13_15 + x_13_20 + x_13_21 + x_13_24 + x_13_25 + x_13_26 + x_13_28
   + x_13_29 + x_13_31 + x_13_34 + x_13_35 + x_13_36 + x_13_37 + x_13_41
   + x_13_42 + x_13_43 + x_13_45 + x_13_47 = 0
 c_2_14: - 2 y_14 + x_1_14 + x_3_14 + x_7_14 + x_8_14 + x_9_14 + x_10_14
   + x_11_14 + x_12_14 + x_14_15 + x_14_16 + x_14_17 + x_14_19 + x_14_20
   + x_14_23 + x_14_25 + x_14_27 + x_14_29 + x_14_31 + x_14_33 + x_14_35
   + x_14_39 + x_14_40 + x_14_42 + x_14_44 + x_14_45 + x_14_46 + x_14_48
   + x_14_49 = 0
 c_2_15: - 2 y_15 + x_0_15 + x_1_15 + x_4_15 + x_5_15 + x_7_15 + x_8_15
   + x_9_15 + x_12_15 + x_13_15 + x_14_15 + x_15_16 + x_15_17 + x_15_19
   + x_15_21 + x_15_22 + x_15_24 + x_15_25 + x_15_26 + x_15_29 + x_15_31
   + x_15_33 + x_15_36 + x_15_45 + x_15_46 + x_15_48 = 0
 c_2_16: - 2 y_16 + x_0_16 + x_2_16 + x_3_16 + x_4_16 + x_6_16 + x_7_16
   + x_8_16 + x_9_16 + x_11_16 + x_12_16 + x_14_16 + x_15_16 + x_16_19
   + x_16_20 + x_16_22 + x_16_28 + x_16_29 + x_16_31 + x_16_34 + x_16_35
   + x_16_36 + x_16_38 + x_16_42 + x_16_46 + x_16_47 + x_16_49 = 0
 c_2_17: - 2 y_17 + x_0_17 + x_1_17 + x_3_17 + x_7_17 + x_8_17 + x_9_17
   + x_14_17 + x_15_17 + x_17_18 + x_17_21 + x_17_22 + x_17_23 + x_17_24
   + x_17_28 + x_17_31 + x_17_32 + x_17_34 + x_17_35 + x_17_42 + x_17_44
   + x_17_45 = 0
 c_2_18: - 2 y_18 + x_0_18 + x_3_18 + x_4_18 + x_6_18 + x_7_18 + x_9_18
   + x_17_18 + x_18_21 + x_18_22 + x_18_23 + x_18_24 + x_18_26 + x_18_30
   + x_18_31 + x_18_33 + x_18_34 + x_18_35 + x_18_37 + x_18_38 + x_18_39
   + x_18_43 + x_18_45 + x_18_46 + x_18_47 = 0
 c_2_19: - 2 y_19 + x_1_19 + x_2_19 + x_5_19 + x_11_19 + x_14_19 + x_15_19
   + x_16_19 + x_19_20 + x_19_21 + x_19_24 + x_19_29 + x_19_31 + x_19_32
   + x_19_36 + x_19_38 + x_19_39 + x_19_40 + x_19_42 + x_19_43 + x_19_44
   + x_19_46 + x_19_49 = 0
 c_2_20: - 2 y_20 + x_1_20 + x_4_20 + x_5_20 + x_6_20 + x_7_20 + x_9_20
   + x_11_20 + x_12_20 + x_13_20 + x_14_20 + x_16_20 + x_19_20 + x_20_21
   + x_20_22 + x_20_27 + x_20_28 + x_20_29 + x_20_30 + x_20_31 + x_20_32
   + x_20_33 + x_20_35 + x_20_36 + x_20_37 + x_20_38 + x_20_42 + x_20_45
   + x_20_48 = 0
 c_2_21: - 2 y_21 + x_0_21 + x_1_21 + x_3_21 + x_4_21 + x_5_21 + x_6_21
   + x_8_21 + x_11_21 + x_12_21 + x_13_21 + x_15_21 + x_17_21 + x_18_21
   + x_19_21 + x_20_21 + x_21_23 + x_21_27 + x_21_28 + x_21_29 + x_21_32
   + x_21_33 + x_21_34 + x_21_35 + x_21_39 + x_21_40 + x_21_44 + x_21_45
   + x_21_47 + x_21_48 = 0
 c_2_22: - 2 y_22 + x_1_22 + x_3_22 + x_5_22 + x_6_22 + x_7_22 + x_9_22
   + x_10_22 + x_15_22 + x_16_22 + x_17_22 + x_18_22 + x_20_22 + x_22_23
   + x_22_24 + x_22_26 + x_22_27 + x_22_29 + x_22_31 + x_22_32 + x_22_33
   + x_22_34 + x_22_35 + x_22_36 + x_22_42 + x_22_43 + x_22_44 + x_22_45
   + x_22_48 + x_22_49 = 0
 c_2_23: - 2 y_23 + x_2_23 + x_3_23 + x_7_23 + x_8_23 + x_9_23 + x_11_23
   + x_14_23 + x_17_23 + x_18_23 + x_21_23 + x_22_23 + x_23_24 + x_23_26
   + x_23_27 + x_23_30 + x_23_35 + x_23_36 + x_23_38 + x_23_39 + x_23_42
   + x_23_43 + x_23_46 + x_23_47 + x_23_49 = 0
 c_2_24: - 2 y_24 + x_0_24 + x_3_24 + x_5_24 + x_9_24 + x_10_24 + x_12_24
   + x_13_24 + x_15_24 + x_17_24 + x_18_24 + x_19_24 + x_22_24 + x_23_24
   + x_24_26 + x_24_28 + x_24_29 + x_24_32 + x_24_33 + x_24_36 + x_24_40
   + x_24_42 + x_24_44 + x_24_46 + x_24_47 + x_24_48 + x_24_49 = 0
 c_2_25: - 2 y_25 + x_0_25 + x_4_25 + x_12_25 + x_13_25 + x_14_25 + x_15_25
   + x_25_26 + x_25_27 + x_25_28 + x_25_29 + x_25_31 + x_25_32 + x_25_35
   + x_25_38 + x_25_40 + x_25_43 + x_25_45 + x_25_47 = 0
 c_2_26: - 2 y_26 + x_0_26 + x_4_26 + x_5_26 + x_8_26 + x_9_26 + x_10_26
   + x_12_26 + x_13_26 + x_15_26 + x_18_26 + x_22_26 + x_23_26 + x_24_26
   + x_25_26 + x_26_28 + x_26_29 + x_26_32 + x_26_37 + x_26_39 + x_26_45
   + x_26_46 + x_26_47 = 0
 c_2_27: - 2 y_27 + x_0_27 + x_2_27 + x_7_27 + x_8_27 + x_11_27 + x_14_27
   + x_20_27 + x_21_27 + x_22_27 + x_23_27 + x_25_27 + x_27_30 + x_27_31
   + x_27_35 + x_27_40 + x_27_42 + x_27_43 + x_27_44 + x_27_46 + x_27_47
   + x_27_48 + x_27_49 = 0
 c_2_28: - 2 y_28 + x_0_28 + x_1_28 + x_3_28 + x_4_28 + x_7_28 + x_8_28
   + x_9_28 + x_13_28 + x_16_28 + x_17_28 + x_20_28 + x_21_28 + x_24_28
   + x_25_28 + x_26_28 + x_28_29 + x_28_30 + x_28_32 + x_28_33 + x_28_34
   + x_28_36 + x_28_38 + x_28_39 + x_28_40 + x_28_41 + x_28_44 + x_28_45
   + x_28_46 + x_28_47 + x_28_49 = 0
 c_2_29: - 2 y_29 + x_2_29 + x_3_29 + x_4_29 + x_8_29 + x_9_29 + x_10_29
   + x_12_29 + x_13_29 + x_14_29 + x_15_29 + x_16_29 + x_19_29 + x_20_29
   + x_21_29 + x_22_29 + x_24_29 + x_25_29 + x_26_29 + x_28_29 + x_29_30
   + x_29_31 + x_29_32 + x_29_34 + x_29_35 + x_29_36 + x_29_37 + x_29_39
   + x_29_40 + x_29_41 + x_29_44 + x_29_45 + x_29_46 + x_29_47 = 0
 c_2_30: - 2 y_30 + x_3_30 + x_4_30 + x_8_30 + x_9_30 + x_10_30 + x_11_30
   + x_12_30 + x_18_30 + x_20_30 + x_23_30 + x_27_30 + x_28_30 + x_29_30
   + x_30_31 + x_30_33 + x_30_34 + x_30_37 + x_30_38 + x_30_40 + x_30_41
   + x_30_43 + x_30_45 + x_30_46 + x_30_48 + x_30_49 = 0
 c_2_31: - 2 y_31 + x_5_31 + x_7_31 + x_9_31 + x_12_31 + x_13_31 + x_14_31
   + x_15_31 + x_16_31 + x_17_31 + x_18_31 + x_19_31 + x_20_31 + x_22_31
   + x_25_31 + x_27_31 + x_29_31 + x_30_31 + x_31_32 + x_31_34 + x_31_36
   + x_31_37 + x_31_39 + x_31_44 + x_31_46 + x_31_48 = 0
 c_2_32: - 2 y_32 + x_4_32 + x_9_32 + x_10_32 + x_11_32 + x_12_32 + x_17_32
   + x_19_32 + x_20_32 + x_21_32 + x_22_32 + x_24_32 + x_25_32 + x_26_32
   + x_28_32 + x_29_32 + x_31_32 + x_32_38 + x_32_39 + x_32_42 + x_32_44
   + x_32_45 + x_32_46 + x_32_47 + x_32_49 = 0
 c_2_33: - 2 y_33 + x_0_33 + x_3_33 + x_5_33 + x_7_33 + x_12_33 + x_14_33
   + x_15_33 + x_18_33 + x_20_33 + x_21_33 + x_22_33 + x_24_33 + x_28_33
   + x_30_33 + x_33_36 + x_33_37 + x_33_39 + x_33_40 + x_33_41 + x_33_42
   + x_33_43 + x_33_48 = 0
 c_2_34: - 2 y_34 + x_1_34 + x_2_34 + x_4_34 + x_5_34 + x_6_34 + x_8_34
   + x_9_34 + x_10_34 + x_11_34 + x_12_34 + x_13_34 + x_16_34 + x_17_34
   + x_18_34 + x_21_34 + x_22_34 + x_28_34 + x_29_34 + x_30_34 + x_31_34
   + x_34_35 + x_34_41 + x_34_42 + x_34_43 + x_34_44 + x_34_47 + x_34_49
   = 0
 c_2_35: - 2 y_35 + x_0_35 + x_2_35 + x_3_35 + x_5_35 + x_7_35 + x_9_35
   + x_10_35 + x_11_35 + x_12_35 + x_13_35 + x_14_35 + x_16_35 + x_17_35
   + x_18_35 + x_20_35 + x_21_35 + x_22_35 + x_23_35 + x_25_35 + x_27_35
   + x_29_35 + x_34_35 + x_35_39 + x_35_42 + x_35_43 + x_35_44 + x_35_47
   + x_35_48 = 0
 c_2_36: - 2 y_36 + x_0_36 + x_1_36 + x_2_36 + x_3_36 + x_4_36 + x_5_36
   + x_12_36 + x_13_36 + x_15_36 + x_16_36 + x_19_36 + x_20_36 + x_22_36
   + x_23_36 + x_24_36 + x_28_36 + x_29_36 + x_31_36 + x_33_36 + x_36_37
   + x_36_44 + x_36_46 + x_36_47 + x_36_48 = 0
 c_2_37: - 2 y_37 + x_2_37 + x_8_37 + x_9_37 + x_13_37 + x_18_37 + x_20_37
   + x_26_37 + x_29_37 + x_30_37 + x_31_37 + x_33_37 + x_36_37 + x_37_38
   + x_37_43 + x_37_48 + x_37_49 = 0
 c_2_38: - 2 y_38 + x_7_38 + x_8_38 + x_9_38 + x_16_38 + x_18_38 + x_19_38
   + x_20_38 + x_23_38 + x_25_38 + x_28_38 + x_30_38 + x_32_38 + x_37_38
   + x_38_39 + x_38_40 + x_38_41 + x_38_42 + x_38_44 + x_38_45 + x_38_46
   + x_38_47 = 0
 c_2_39: - 2 y_39 + x_0_39 + x_1_39 + x_3_39 + x_6_39 + x_7_39 + x_8_39
   + x_10_39 + x_11_39 + x_14_39 + x_18_39 + x_19_39 + x_21_39 + x_23_39
   + x_26_39 + x_28_39 + x_29_39 + x_31_39 + x_32_39 + x_33_39 + x_35_39
   + x_38_39 + x_39_40 + x_39_41 + x_39_44 + x_39_45 + x_39_46 + x_39_48
   + x_39_49 = 0
 c_2_40: - 2 y_40 + x_0_40 + x_2_40 + x_7_40 + x_8_40 + x_11_40 + x_12_40
   + x_14_40 + x_19_40 + x_21_40 + x_24_40 + x_25_40 + x_27_40 + x_28_40
   + x_29_40 + x_30_40 + x_33_40 + x_38_40 + x_39_40 + x_40_42 + x_40_45
   + x_40_46 + x_40_47 + x_40_48 + x_40_49 = 0
 c_2_41: - 2 y_41 + x_2_41 + x_3_41 + x_4_41 + x_5_41 + x_7_41 + x_11_41
   + x_13_41 + x_28_41 + x_29_41 + x_30_41 + x_33_41 + x_34_41 + x_38_41
   + x_39_41 + x_41_44 + x_41_46 + x_41_47 + x_41_49 = 0
 c_2_42: - 2 y_42 + x_0_42 + x_1_42 + x_4_42 + x_7_42 + x_13_42 + x_14_42
   + x_16_42 + x_17_42 + x_19_42 + x_20_42 + x_22_42 + x_23_42 + x_24_42
   + x_27_42 + x_32_42 + x_33_42 + x_34_42 + x_35_42 + x_38_42 + x_40_42
   + x_42_49 = 0
 c_2_43: - 2 y_43 + x_0_43 + x_1_43 + x_2_43 + x_4_43 + x_7_43 + x_8_43
   + x_10_43 + x_11_43 + x_12_43 + x_13_43 + x_18_43 + x_19_43 + x_22_43
   + x_23_43 + x_25_43 + x_27_43 + x_30_43 + x_33_43 + x_34_43 + x_35_43
   + x_37_43 + x_43_46 + x_43_48 = 0
 c_2_44: - 2 y_44 + x_2_44 + x_3_44 + x_4_44 + x_5_44 + x_6_44 + x_7_44
   + x_9_44 + x_11_44 + x_12_44 + x_14_44 + x_17_44 + x_19_44 + x_21_44
   + x_22_44 + x_24_44 + x_27_44 + x_28_44 + x_29_44 + x_31_44 + x_32_44
   + x_34_44 + x_35_44 + x_36_44 + x_38_44 + x_39_44 + x_41_44 + x_44_45
   + x_44_46 + x_44_47 + x_44_48 = 0
 c_2_45: - 2 y_45 + x_0_45 + x_2_45 + x_3_45 + x_4_45 + x_5_45 + x_6_45
   + x_7_45 + x_13_45 + x_14_45 + x_15_45 + x_17_45 + x_18_45 + x_20_45
   + x_21_45 + x_22_45 + x_25_45 + x_26_45 + x_28_45 + x_29_45 + x_30_45
   + x_32_45 + x_38_45 + x_39_45 + x_40_45 + x_44_45 + x_45_46 + x_45_48
   = 0
 c_2_46: - 2 y_46 + x_1_46 + x_3_46 + x_5_46 + x_8_46 + x_10_46 + x_12_46
   + x_14_46 + x_15_46 + x_16_46 + x_18_46 + x_19_46 + x_23_46 + x_24_46
   + x_26_46 + x_27_46 + x_28_46 + x_29_46 + x_30_46 + x_31_46 + x_32_46
   + x_36_46 + x_38_46 + x_39_46 + x_40_46 + x_41_46 + x_43_46 + x_44_46
   + x_45_46 + x_46_47 + x_46_48 = 0
 c_2_47: - 2 y_47 + x_1_47 + x_2_47 + x_3_47 + x_4_47 + x_6_47 + x_7_47
   + x_8_47 + x_9_47 + x_12_47 + x_13_47 + x_16_47 + x_18_47 + x_21_47
   + x_23_47 + x_24_47 + x_25_47 + x_26_47 + x_27_47 + x_28_47 + x_29_47
   + x_32_47 + x_34_47 + x_35_47 + x_36_47 + x_38_47 + x_40_47 + x_41_47
   + x_44_47 + x_46_47 + x_47_49 = 0
 c_2_48: - 2 y_48 + x_0_48 + x_5_48 + x_14_48 + x_15_48 + x_20_48 + x_21_48
   + x_22_48 + x_24_48 + x_27_48 + x_30_48 + x_31_48 + x_33_48 + x_35_48
   + x_36_48 + x_37_48 + x_39_48 + x_40_48 + x_43_48 + x_44_48 + x_45_48
   + x_46_48 + x_48_49 = 0
 c_2_49: - 2 y_49 + x_0_49 + x_4_49 + x_9_49 + x_10_49 + x_12_49 + x_14_49
   + x_16_49 + x_19_49 + x_22_49 + x_23_49 + x_24_49 + x_27_49 + x_28_49
   + x_30_49 + x_32_49 + x_34_49 + x_37_49 + x_39_49 + x_40_49 + x_41_49
   + x_42_49 + x_47_49 + x_48_49 = 0
Bounds
 Constant = 1
Binaries
 y_0 y_1 y_2 y_3 y_4 y_5 y_6 y_7 y_8 y_9 y_10 y_11 y_12 y_13 y_14 y_15 y_16
 y_17 y_18 y_19 y_20 y_21 y_22 y_23 y_24 y_25 y_26 y_27 y_28 y_29 y_30 y_31
 y_32 y_33 y_34 y_35 y_36 y_37 y_38 y_39 y_40 y_41 y_42 y_43 y_44 y_45 y_46
 y_47 y_48 y_49 x_0_1 x_0_2 x_0_3 x_0_4 x_0_5 x_0_7 x_0_12 x_0_15 x_0_16
 x_0_17 x_0_18 x_0_21 x_0_24 x_0_25 x_0_26 x_0_27 x_0_28 x_0_33 x_0_35
 x_0_36 x_0_39 x_0_40 x_0_42 x_0_43 x_0_45 x_0_48 x_0_49 x_1_2 x_1_3 x_1_8
 x_1_11 x_1_12 x_1_13 x_1_14 x_1_15 x_1_17 x_1_19 x_1_20 x_1_21 x_1_22
 x_1_28 x_1_34 x_1_36 x_1_39 x_1_42 x_1_43 x_1_46 x_1_47 x_2_4 x_2_5 x_2_7
 x_2_8 x_2_16 x_2_19 x_2_23 x_2_27 x_2_29 x_2_34 x_2_35 x_2_36 x_2_37
 x_2_40 x_2_41 x_2_43 x_2_44 x_2_45 x_2_47 x_3_4 x_3_5 x_3_7 x_3_9 x_3_12
 x_3_13 x_3_14 x_3_16 x_3_17 x_3_18 x_3_21 x_3_22 x_3_23 x_3_24 x_3_28
 x_3_29 x_3_30 x_3_33 x_3_35 x_3_36 x_3_39 x_3_41 x_3_44 x_3_45 x_3_46
 x_3_47 x_4_10 x_4_13 x_4_15 x_4_16 x_4_18 x_4_20 x_4_21 x_4_25 x_4_26
 x_4_28 x_4_29 x_4_30 x_4_32 x_4_34 x_4_36 x_4_41 x_4_42 x_4_43 x_4_44
 x_4_45 x_4_47 x_4_49 x_5_8 x_5_9 x_5_10 x_5_13 x_5_15 x_5_19 x_5_20 x_5_21
 x_5_22 x_5_24 x_5_26 x_5_31 x_5_33 x_5_34 x_5_35 x_5_36 x_5_41 x_5_44
 x_5_45 x_5_46 x_5_48 x_6_8 x_6_10 x_6_11 x_6_16 x_6_18 x_6_20 x_6_21
 x_6_22 x_6_34 x_6_39 x_6_44 x_6_45 x_6_47 x_7_9 x_7_11 x_7_12 x_7_13
 x_7_14 x_7_15 x_7_16 x_7_17 x_7_18 x_7_20 x_7_22 x_7_23 x_7_27 x_7_28
 x_7_31 x_7_33 x_7_35 x_7_38 x_7_39 x_7_40 x_7_41 x_7_42 x_7_43 x_7_44
 x_7_45 x_7_47 x_8_12 x_8_14 x_8_15 x_8_16 x_8_17 x_8_21 x_8_23 x_8_26
 x_8_27 x_8_28 x_8_29 x_8_30 x_8_34 x_8_37 x_8_38 x_8_39 x_8_40 x_8_43
 x_8_46 x_8_47 x_9_11 x_9_12 x_9_13 x_9_14 x_9_15 x_9_16 x_9_17 x_9_18
 x_9_20 x_9_22 x_9_23 x_9_24 x_9_26 x_9_28 x_9_29 x_9_30 x_9_31 x_9_32
 x_9_34 x_9_35 x_9_37 x_9_38 x_9_44 x_9_47 x_9_49 x_10_11 x_10_14 x_10_22
 x_10_24 x_10_26 x_10_29 x_10_30 x_10_32 x_10_34 x_10_35 x_10_39 x_10_43
 x_10_46 x_10_49 x_11_14 x_11_16 x_11_19 x_11_20 x_11_21 x_11_23 x_11_27
 x_11_30 x_11_32 x_11_34 x_11_35 x_11_39 x_11_40 x_11_41 x_11_43 x_11_44
 x_12_14 x_12_15 x_12_16 x_12_20 x_12_21 x_12_24 x_12_25 x_12_26 x_12_29
 x_12_30 x_12_31 x_12_32 x_12_33 x_12_34 x_12_35 x_12_36 x_12_40 x_12_43
 x_12_44 x_12_46 x_12_47 x_12_49 x_13_15 x_13_20 x_13_21 x_13_24 x_13_25
 x_13_26 x_13_28 x_13_29 x_13_31 x_13_34 x_13_35 x_13_36 x_13_37 x_13_41
 x_13_42 x_13_43 x_13_45 x_13_47 x_14_15 x_14_16 x_14_17 x_14_19 x_14_20
 x_14_23 x_14_25 x_14_27 x_14_29 x_14_31 x_14_33 x_14_35 x_14_39 x_14_40
 x_14_42 x_14_44 x_14_45 x_14_46 x_14_48 x_14_49 x_15_16 x_15_17 x_15_19
 x_15_21 x_15_22 x_15_24 x_15_25 x_15_26 x_15_29 x_15_31 x_15_33 x_15_36
 x_15_45 x_15_46 x_15_48 x_16_19 x_16_20 x_16_22 x_16_28 x_16_29 x_16_31
 x_16_34 x_16_35 x_16_36 x_16_38 x_16_42 x_16_46 x_16_47 x_16_49 x_17_18
 x_17_21 x_17_22 x_17_23 x_17_24 x_17_28 x_17_31 x_17_32 x_17_34 x_17_35
 x_17_42 x_17_44 x_17_45 x_18_21 x_18_22 x_18_23 x_18_24 x_18_26 x_18_30
 x_18_31 x_18_33 x_18_34 x_18_35 x_18_37 x_18_38 x_18_39 x_18_43 x_18_45
 x_18_46 x_18_47 x_19_20 x_19_21 x_19_24 x_19_29 x_19_31 x_19_32 x_19_36
 x_19_38 x_19_39 x_19_40 x_19_42 x_19_43 x_19_44 x_19_46 x_19_49 x_20_21
 x_20_22 x_20_27 x_20_28 x_20_29 x_20_30 x_20_31 x_20_32 x_20_33 x_20_35
 x_20_36 x_20_37 x_20_38 x_20_42 x_20_45 x_20_48 x_21_23 x_21_27 x_21_28
 x_21_29 x_21_32 x_21_33 x_21_34 x_21_35 x_21_39 x_21_40 x_21_44 x_21_45
 x_21_47 x_21_48 x_22_23 x_22_24 x_22_26 x_22_27 x_22_29 x_22_31 x_22_32
 x_22_33 x_22_34 x_22_35 x_22_36 x_22_42 x_22_43 x_22_44 x_22_45 x_22_48
 x_22_49 x_23_24 x_23_26 x_23_27 x_23_30 x_23_35 x_23_36 x_23_38 x_23_39
 x_23_42 x_23_43 x_23_46 x_23_47 x_23_49 x_24_26 x_24_28 x_24_29 x_24_32
 x_24_33 x_24_36 x_24_40 x_24_42 x_24_44 x_24_46 x_24_47 x_24_48 x_24_49
 x_25_26 x_25_27 x_25_28 x_25_29 x_25_31 x_25_32 x_25_35 x_25_38 x_25_40
 x_25_43 x_25_45 x_25_47 x_26_28 x_26_29 x_26_32 x_26_37 x_26_39 x_26_45
 x_26_46 x_26_47 x_27_30 x_27_31 x_27_35 x_27_40 x_27_42 x_27_43 x_27_44
 x_27_46 x_27_47 x_27_48 x_27_49 x_28_29 x_28_30 x_28_32 x_28_33 x_28_34
 x_28_36 x_28_38 x_28_39 x_28_40 x_28_41 x_28_44 x_28_45 x_28_46 x_28_47
 x_28_49 x_29_30 x_29_31 x_29_32 x_29_34 x_29_35 x_29_36 x_29_37 x_29_39
 x_29_40 x_29_41 x_29_44 x_29_45 x_29_46 x_29_47 x_30_31 x_30_33 x_30_34
 x_30_37 x_30_38 x_30_40 x_30_41 x_30_43 x_30_45 x_30_46 x_30_48 x_30_49
 x_31_32 x_31_34 x_31_36 x_31_37 x_31_39 x_31_44 x_31_46 x_31_48 x_32_38
 x_32_39 x_32_42 x_32_44 x_32_45 x_32_46 x_32_47 x_32_49 x_33_36 x_33_37
 x_33_39 x_33_40 x_33_41 x_33_42 x_33_43 x_33_48 x_34_35 x_34_41 x_34_42
 x_34_43 x_34_44 x_34_47 x_34_49 x_35_39 x_35_42 x_35_43 x_35_44 x_35_47
 x_35_48 x_36_37 x_36_44 x_36_46 x_36_47 x_36_48 x_37_38 x_37_43 x_37_48
 x_37_49 x_38_39 x_38_40 x_38_41 x_38_42 x_38_44 x_38_45 x_38_46 x_38_47
 x_39_40 x_39_41 x_39_44 x_39_45 x_39_46 x_39_48 x_39_49 x_40_42 x_40_45
 x_40_46 x_40_47 x_40_48 x_40_49 x_41_44 x_41_46 x_41_47 x_41_49 x_42_49
 x_43_46 x_43_48 x_44_45 x_44_46 x_44_47 x_44_48 x_45_46 x_45_48 x_46_47
 x_46_48 x_47_49 x_48_49
End
